NAME: rgb10
TYPE: ATSP
COMMENT: 10 random
DIMENSION: 10
EDGE_WEIGHT_TYPE: EXPLICIT
EDGE_WEIGHT_FORMAT: FULL_MATRIX
EDGE_WEIGHT_SECTION
0	9577	15076	7514	4571	6823	8422	7625	7562	4660	
8421	0	7339	7866	3491	4942	8543	13222	13159	10196	
14658	7828	0	9178	11144	5891	9492	12621	12303	16433	
7505	8024	9475	0	4422	2543	4659	7788	7470	9524	
4795	3167	9349	4423	0	3732	7232	6140	5822	5321	
6888	4904	6016	2558	3805	0	4041	7171	6852	8906	
8296	8605	9717	4773	7031	4100	0	5186	4868	6922	
7645	8914	12886	7942	6380	7269	5482	0	363	6266	
7582	8851	12568	7624	6317	6951	5164	363	0	6204	
4572	11305	16804	9513	5203	8841	7053	6451	6388	0	
EOF